c CNF file corresponding to a (partial) station packing problem.
p cnf 5750 243
1 2 3 4 5 6 7 8 9 10 11 12 13 14 0
-1 -2 0
-1 -3 0
-1 -4 0
-1 -5 0
-1 -6 0
-1 -7 0
-1 -8 0
-1 -9 0
-1 -10 0
-1 -11 0
-1 -12 0
-1 -13 0
-1 -14 0
-2 -3 0
-2 -4 0
-2 -5 0
-2 -6 0
-2 -7 0
-2 -8 0
-2 -9 0
-2 -10 0
-2 -11 0
-2 -12 0
-2 -13 0
-2 -14 0
-3 -4 0
-3 -5 0
-3 -6 0
-3 -7 0
-3 -8 0
-3 -9 0
-3 -10 0
-3 -11 0
-3 -12 0
-3 -13 0
-3 -14 0
-4 -5 0
-4 -6 0
-4 -7 0
-4 -8 0
-4 -9 0
-4 -10 0
-4 -11 0
-4 -12 0
-4 -13 0
-4 -14 0
-5 -6 0
-5 -7 0
-5 -8 0
-5 -9 0
-5 -10 0
-5 -11 0
-5 -12 0
-5 -13 0
-5 -14 0
-6 -7 0
-6 -8 0
-6 -9 0
-6 -10 0
-6 -11 0
-6 -12 0
-6 -13 0
-6 -14 0
-7 -8 0
-7 -9 0
-7 -10 0
-7 -11 0
-7 -12 0
-7 -13 0
-7 -14 0
-8 -9 0
-8 -10 0
-8 -11 0
-8 -12 0
-8 -13 0
-8 -14 0
-9 -10 0
-9 -11 0
-9 -12 0
-9 -13 0
-9 -14 0
-10 -11 0
-10 -12 0
-10 -13 0
-10 -14 0
-11 -12 0
-11 -13 0
-11 -14 0
-12 -13 0
-12 -14 0
-13 -14 0
-7 -5743 0
-5737 -2 0
-5745 -9 0
-10 -5746 0
-5748 -12 0
-3 -5738 0
-5749 -13 0
-1 -5736 0
-5740 -4 0
-8 -5744 0
-5742 -6 0
-5741 -5 0
-11 -5747 0
-14 -5750 0
5734 5735 5736 5737 5738 5739 5740 5741 5742 5743 5744 5745 5746 5747 5748 5749 5750 0
-5734 -5735 0
-5734 -5736 0
-5734 -5737 0
-5734 -5738 0
-5734 -5739 0
-5734 -5740 0
-5734 -5741 0
-5734 -5742 0
-5734 -5743 0
-5734 -5744 0
-5734 -5745 0
-5734 -5746 0
-5734 -5747 0
-5734 -5748 0
-5734 -5749 0
-5734 -5750 0
-5735 -5736 0
-5735 -5737 0
-5735 -5738 0
-5735 -5739 0
-5735 -5740 0
-5735 -5741 0
-5735 -5742 0
-5735 -5743 0
-5735 -5744 0
-5735 -5745 0
-5735 -5746 0
-5735 -5747 0
-5735 -5748 0
-5735 -5749 0
-5735 -5750 0
-5736 -5737 0
-5736 -5738 0
-5736 -5739 0
-5736 -5740 0
-5736 -5741 0
-5736 -5742 0
-5736 -5743 0
-5736 -5744 0
-5736 -5745 0
-5736 -5746 0
-5736 -5747 0
-5736 -5748 0
-5736 -5749 0
-5736 -5750 0
-5737 -5738 0
-5737 -5739 0
-5737 -5740 0
-5737 -5741 0
-5737 -5742 0
-5737 -5743 0
-5737 -5744 0
-5737 -5745 0
-5737 -5746 0
-5737 -5747 0
-5737 -5748 0
-5737 -5749 0
-5737 -5750 0
-5738 -5739 0
-5738 -5740 0
-5738 -5741 0
-5738 -5742 0
-5738 -5743 0
-5738 -5744 0
-5738 -5745 0
-5738 -5746 0
-5738 -5747 0
-5738 -5748 0
-5738 -5749 0
-5738 -5750 0
-5739 -5740 0
-5739 -5741 0
-5739 -5742 0
-5739 -5743 0
-5739 -5744 0
-5739 -5745 0
-5739 -5746 0
-5739 -5747 0
-5739 -5748 0
-5739 -5749 0
-5739 -5750 0
-5740 -5741 0
-5740 -5742 0
-5740 -5743 0
-5740 -5744 0
-5740 -5745 0
-5740 -5746 0
-5740 -5747 0
-5740 -5748 0
-5740 -5749 0
-5740 -5750 0
-5741 -5742 0
-5741 -5743 0
-5741 -5744 0
-5741 -5745 0
-5741 -5746 0
-5741 -5747 0
-5741 -5748 0
-5741 -5749 0
-5741 -5750 0
-5742 -5743 0
-5742 -5744 0
-5742 -5745 0
-5742 -5746 0
-5742 -5747 0
-5742 -5748 0
-5742 -5749 0
-5742 -5750 0
-5743 -5744 0
-5743 -5745 0
-5743 -5746 0
-5743 -5747 0
-5743 -5748 0
-5743 -5749 0
-5743 -5750 0
-5744 -5745 0
-5744 -5746 0
-5744 -5747 0
-5744 -5748 0
-5744 -5749 0
-5744 -5750 0
-5745 -5746 0
-5745 -5747 0
-5745 -5748 0
-5745 -5749 0
-5745 -5750 0
-5746 -5747 0
-5746 -5748 0
-5746 -5749 0
-5746 -5750 0
-5747 -5748 0
-5747 -5749 0
-5747 -5750 0
-5748 -5749 0
-5748 -5750 0
-5749 -5750 0
